(set-logic QF_LRA)
(declare-fun T1 () Real )
(declare-fun T2 () Real )
(declare-fun T3 () Real )
(declare-fun T4 () Real )
(declare-fun T5 () Real )
(declare-fun T6 () Real )
(declare-fun T7 () Real )
(declare-fun T8 () Real )
(declare-fun T9 () Real )
(declare-fun T10 () Real )
(declare-fun Z () Real )
(assert ( and 
(or ( <= ( + T1 71 ) T2 ) ( <= ( + T2 89 ) T1 ) )
(or ( <= ( + T1 152 )  ( + T2 89 ) ) ( <= ( + T2 161 )( + T1 71 ) ) )
(or ( <= ( + T1 162 )  ( + T2 161 ) ) ( <= ( + T2 214 )( + T1 152 ) ) )
(or ( <= ( + T1 210 )  ( + T2 214 ) ) ( <= ( + T2 256 )( + T1 162 ) ) )
(or ( <= ( + T1 220 )  ( + T2 256 ) ) ( <= ( + T2 273 )( + T1 210 ) ) )
(or ( <= ( + T1 296 )  ( + T2 273 ) ) ( <= ( + T2 312 )( + T1 220 ) ) )
(or ( <= ( + T1 370 )  ( + T2 312 ) ) ( <= ( + T2 379 )( + T1 296 ) ) )
(or ( <= ( + T1 467 )  ( + T2 379 ) ) ( <= ( + T2 405 )( + T1 370 ) ) )
(or ( <= ( + T1 71 ) T3 ) ( <= ( + T3 68 ) T1 ) )
(or ( <= ( + T1 152 )  ( + T3 68 ) ) ( <= ( + T3 152 )( + T1 71 ) ) )
(or ( <= ( + T1 162 )  ( + T3 152 ) ) ( <= ( + T3 158 )( + T1 152 ) ) )
(or ( <= ( + T1 210 )  ( + T3 158 ) ) ( <= ( + T3 254 )( + T1 162 ) ) )
(or ( <= ( + T1 220 )  ( + T3 254 ) ) ( <= ( + T3 255 )( + T1 210 ) ) )
(or ( <= ( + T1 296 )  ( + T3 255 ) ) ( <= ( + T3 302 )( + T1 220 ) ) )
(or ( <= ( + T1 370 )  ( + T3 302 ) ) ( <= ( + T3 306 )( + T1 296 ) ) )
(or ( <= ( + T1 467 )  ( + T3 306 ) ) ( <= ( + T3 324 )( + T1 370 ) ) )
(or ( <= ( + T1 71 ) T4 ) ( <= ( + T4 89 ) T1 ) )
(or ( <= ( + T1 152 )  ( + T4 89 ) ) ( <= ( + T4 136 )( + T1 71 ) ) )
(or ( <= ( + T1 162 )  ( + T4 136 ) ) ( <= ( + T4 147 )( + T1 152 ) ) )
(or ( <= ( + T1 210 )  ( + T4 147 ) ) ( <= ( + T4 220 )( + T1 162 ) ) )
(or ( <= ( + T1 220 )  ( + T4 220 ) ) ( <= ( + T4 269 )( + T1 210 ) ) )
(or ( <= ( + T1 296 )  ( + T4 269 ) ) ( <= ( + T4 288 )( + T1 220 ) ) )
(or ( <= ( + T1 370 )  ( + T4 288 ) ) ( <= ( + T4 380 )( + T1 296 ) ) )
(or ( <= ( + T1 467 )  ( + T4 380 ) ) ( <= ( + T4 451 )( + T1 370 ) ) )
(or ( <= ( + T1 71 ) T5 ) ( <= ( + T5 51 ) T1 ) )
(or ( <= ( + T1 152 )  ( + T5 51 ) ) ( <= ( + T5 104 )( + T1 71 ) ) )
(or ( <= ( + T1 162 )  ( + T5 104 ) ) ( <= ( + T5 174 )( + T1 152 ) ) )
(or ( <= ( + T1 210 )  ( + T5 174 ) ) ( <= ( + T5 234 )( + T1 162 ) ) )
(or ( <= ( + T1 220 )  ( + T5 234 ) ) ( <= ( + T5 263 )( + T1 210 ) ) )
(or ( <= ( + T1 296 )  ( + T5 263 ) ) ( <= ( + T5 306 )( + T1 220 ) ) )
(or ( <= ( + T1 370 )  ( + T5 306 ) ) ( <= ( + T5 362 )( + T1 296 ) ) )
(or ( <= ( + T1 467 )  ( + T5 362 ) ) ( <= ( + T5 431 )( + T1 370 ) ) )
(or ( <= ( + T1 71 ) T6 ) ( <= ( + T6 66 ) T1 ) )
(or ( <= ( + T1 152 )  ( + T6 66 ) ) ( <= ( + T6 127 )( + T1 71 ) ) )
(or ( <= ( + T1 162 )  ( + T6 127 ) ) ( <= ( + T6 189 )( + T1 152 ) ) )
(or ( <= ( + T1 210 )  ( + T6 189 ) ) ( <= ( + T6 272 )( + T1 162 ) ) )
(or ( <= ( + T1 220 )  ( + T6 272 ) ) ( <= ( + T6 323 )( + T1 210 ) ) )
(or ( <= ( + T1 296 )  ( + T6 323 ) ) ( <= ( + T6 403 )( + T1 220 ) ) )
(or ( <= ( + T1 370 )  ( + T6 403 ) ) ( <= ( + T6 463 )( + T1 296 ) ) )
(or ( <= ( + T1 467 )  ( + T6 463 ) ) ( <= ( + T6 533 )( + T1 370 ) ) )
(or ( <= ( + T1 71 ) T7 ) ( <= ( + T7 63 ) T1 ) )
(or ( <= ( + T1 152 )  ( + T7 63 ) ) ( <= ( + T7 80 )( + T1 71 ) ) )
(or ( <= ( + T1 162 )  ( + T7 80 ) ) ( <= ( + T7 145 )( + T1 152 ) ) )
(or ( <= ( + T1 210 )  ( + T7 145 ) ) ( <= ( + T7 208 )( + T1 162 ) ) )
(or ( <= ( + T1 220 )  ( + T7 208 ) ) ( <= ( + T7 224 )( + T1 210 ) ) )
(or ( <= ( + T1 296 )  ( + T7 224 ) ) ( <= ( + T7 244 )( + T1 220 ) ) )
(or ( <= ( + T1 370 )  ( + T7 244 ) ) ( <= ( + T7 325 )( + T1 296 ) ) )
(or ( <= ( + T1 467 )  ( + T7 325 ) ) ( <= ( + T7 329 )( + T1 370 ) ) )
(or ( <= ( + T1 71 ) T8 ) ( <= ( + T8 66 ) T1 ) )
(or ( <= ( + T1 152 )  ( + T8 66 ) ) ( <= ( + T8 109 )( + T1 71 ) ) )
(or ( <= ( + T1 162 )  ( + T8 109 ) ) ( <= ( + T8 137 )( + T1 152 ) ) )
(or ( <= ( + T1 210 )  ( + T8 137 ) ) ( <= ( + T8 204 )( + T1 162 ) ) )
(or ( <= ( + T1 220 )  ( + T8 204 ) ) ( <= ( + T8 218 )( + T1 210 ) ) )
(or ( <= ( + T1 296 )  ( + T8 218 ) ) ( <= ( + T8 289 )( + T1 220 ) ) )
(or ( <= ( + T1 370 )  ( + T8 289 ) ) ( <= ( + T8 326 )( + T1 296 ) ) )
(or ( <= ( + T1 467 )  ( + T8 326 ) ) ( <= ( + T8 390 )( + T1 370 ) ) )
(or ( <= ( + T1 71 ) T9 ) ( <= ( + T9 24 ) T1 ) )
(or ( <= ( + T1 152 )  ( + T9 24 ) ) ( <= ( + T9 83 )( + T1 71 ) ) )
(or ( <= ( + T1 162 )  ( + T9 83 ) ) ( <= ( + T9 107 )( + T1 152 ) ) )
(or ( <= ( + T1 210 )  ( + T9 107 ) ) ( <= ( + T9 111 )( + T1 162 ) ) )
(or ( <= ( + T1 220 )  ( + T9 111 ) ) ( <= ( + T9 112 )( + T1 210 ) ) )
(or ( <= ( + T1 296 )  ( + T9 112 ) ) ( <= ( + T9 143 )( + T1 220 ) ) )
(or ( <= ( + T1 370 )  ( + T9 143 ) ) ( <= ( + T9 167 )( + T1 296 ) ) )
(or ( <= ( + T1 467 )  ( + T9 167 ) ) ( <= ( + T9 186 )( + T1 370 ) ) )
(or ( <= ( + T1 71 ) T10 ) ( <= ( + T10 43 ) T1 ) )
(or ( <= ( + T1 152 )  ( + T10 43 ) ) ( <= ( + T10 128 )( + T1 71 ) ) )
(or ( <= ( + T1 162 )  ( + T10 128 ) ) ( <= ( + T10 181 )( + T1 152 ) ) )
(or ( <= ( + T1 210 )  ( + T10 181 ) ) ( <= ( + T10 274 )( + T1 162 ) ) )
(or ( <= ( + T1 220 )  ( + T10 274 ) ) ( <= ( + T10 339 )( + T1 210 ) ) )
(or ( <= ( + T1 296 )  ( + T10 339 ) ) ( <= ( + T10 351 )( + T1 220 ) ) )
(or ( <= ( + T1 370 )  ( + T10 351 ) ) ( <= ( + T10 413 )( + T1 296 ) ) )
(or ( <= ( + T1 467 )  ( + T10 413 ) ) ( <= ( + T10 440 )( + T1 370 ) ) )
(or ( <= ( + T2 89 ) T3 ) ( <= ( + T3 68 ) T2 ) )
(or ( <= ( + T2 161 )  ( + T3 68 ) ) ( <= ( + T3 152 )( + T2 89 ) ) )
(or ( <= ( + T2 214 )  ( + T3 152 ) ) ( <= ( + T3 158 )( + T2 161 ) ) )
(or ( <= ( + T2 256 )  ( + T3 158 ) ) ( <= ( + T3 254 )( + T2 214 ) ) )
(or ( <= ( + T2 273 )  ( + T3 254 ) ) ( <= ( + T3 255 )( + T2 256 ) ) )
(or ( <= ( + T2 312 )  ( + T3 255 ) ) ( <= ( + T3 302 )( + T2 273 ) ) )
(or ( <= ( + T2 379 )  ( + T3 302 ) ) ( <= ( + T3 306 )( + T2 312 ) ) )
(or ( <= ( + T2 405 )  ( + T3 306 ) ) ( <= ( + T3 324 )( + T2 379 ) ) )
(or ( <= ( + T2 89 ) T4 ) ( <= ( + T4 89 ) T2 ) )
(or ( <= ( + T2 161 )  ( + T4 89 ) ) ( <= ( + T4 136 )( + T2 89 ) ) )
(or ( <= ( + T2 214 )  ( + T4 136 ) ) ( <= ( + T4 147 )( + T2 161 ) ) )
(or ( <= ( + T2 256 )  ( + T4 147 ) ) ( <= ( + T4 220 )( + T2 214 ) ) )
(or ( <= ( + T2 273 )  ( + T4 220 ) ) ( <= ( + T4 269 )( + T2 256 ) ) )
(or ( <= ( + T2 312 )  ( + T4 269 ) ) ( <= ( + T4 288 )( + T2 273 ) ) )
(or ( <= ( + T2 379 )  ( + T4 288 ) ) ( <= ( + T4 380 )( + T2 312 ) ) )
(or ( <= ( + T2 405 )  ( + T4 380 ) ) ( <= ( + T4 451 )( + T2 379 ) ) )
(or ( <= ( + T2 89 ) T5 ) ( <= ( + T5 51 ) T2 ) )
(or ( <= ( + T2 161 )  ( + T5 51 ) ) ( <= ( + T5 104 )( + T2 89 ) ) )
(or ( <= ( + T2 214 )  ( + T5 104 ) ) ( <= ( + T5 174 )( + T2 161 ) ) )
(or ( <= ( + T2 256 )  ( + T5 174 ) ) ( <= ( + T5 234 )( + T2 214 ) ) )
(or ( <= ( + T2 273 )  ( + T5 234 ) ) ( <= ( + T5 263 )( + T2 256 ) ) )
(or ( <= ( + T2 312 )  ( + T5 263 ) ) ( <= ( + T5 306 )( + T2 273 ) ) )
(or ( <= ( + T2 379 )  ( + T5 306 ) ) ( <= ( + T5 362 )( + T2 312 ) ) )
(or ( <= ( + T2 405 )  ( + T5 362 ) ) ( <= ( + T5 431 )( + T2 379 ) ) )
(or ( <= ( + T2 89 ) T6 ) ( <= ( + T6 66 ) T2 ) )
(or ( <= ( + T2 161 )  ( + T6 66 ) ) ( <= ( + T6 127 )( + T2 89 ) ) )
(or ( <= ( + T2 214 )  ( + T6 127 ) ) ( <= ( + T6 189 )( + T2 161 ) ) )
(or ( <= ( + T2 256 )  ( + T6 189 ) ) ( <= ( + T6 272 )( + T2 214 ) ) )
(or ( <= ( + T2 273 )  ( + T6 272 ) ) ( <= ( + T6 323 )( + T2 256 ) ) )
(or ( <= ( + T2 312 )  ( + T6 323 ) ) ( <= ( + T6 403 )( + T2 273 ) ) )
(or ( <= ( + T2 379 )  ( + T6 403 ) ) ( <= ( + T6 463 )( + T2 312 ) ) )
(or ( <= ( + T2 405 )  ( + T6 463 ) ) ( <= ( + T6 533 )( + T2 379 ) ) )
(or ( <= ( + T2 89 ) T7 ) ( <= ( + T7 63 ) T2 ) )
(or ( <= ( + T2 161 )  ( + T7 63 ) ) ( <= ( + T7 80 )( + T2 89 ) ) )
(or ( <= ( + T2 214 )  ( + T7 80 ) ) ( <= ( + T7 145 )( + T2 161 ) ) )
(or ( <= ( + T2 256 )  ( + T7 145 ) ) ( <= ( + T7 208 )( + T2 214 ) ) )
(or ( <= ( + T2 273 )  ( + T7 208 ) ) ( <= ( + T7 224 )( + T2 256 ) ) )
(or ( <= ( + T2 312 )  ( + T7 224 ) ) ( <= ( + T7 244 )( + T2 273 ) ) )
(or ( <= ( + T2 379 )  ( + T7 244 ) ) ( <= ( + T7 325 )( + T2 312 ) ) )
(or ( <= ( + T2 405 )  ( + T7 325 ) ) ( <= ( + T7 329 )( + T2 379 ) ) )
(or ( <= ( + T2 89 ) T8 ) ( <= ( + T8 66 ) T2 ) )
(or ( <= ( + T2 161 )  ( + T8 66 ) ) ( <= ( + T8 109 )( + T2 89 ) ) )
(or ( <= ( + T2 214 )  ( + T8 109 ) ) ( <= ( + T8 137 )( + T2 161 ) ) )
(or ( <= ( + T2 256 )  ( + T8 137 ) ) ( <= ( + T8 204 )( + T2 214 ) ) )
(or ( <= ( + T2 273 )  ( + T8 204 ) ) ( <= ( + T8 218 )( + T2 256 ) ) )
(or ( <= ( + T2 312 )  ( + T8 218 ) ) ( <= ( + T8 289 )( + T2 273 ) ) )
(or ( <= ( + T2 379 )  ( + T8 289 ) ) ( <= ( + T8 326 )( + T2 312 ) ) )
(or ( <= ( + T2 405 )  ( + T8 326 ) ) ( <= ( + T8 390 )( + T2 379 ) ) )
(or ( <= ( + T2 89 ) T9 ) ( <= ( + T9 24 ) T2 ) )
(or ( <= ( + T2 161 )  ( + T9 24 ) ) ( <= ( + T9 83 )( + T2 89 ) ) )
(or ( <= ( + T2 214 )  ( + T9 83 ) ) ( <= ( + T9 107 )( + T2 161 ) ) )
(or ( <= ( + T2 256 )  ( + T9 107 ) ) ( <= ( + T9 111 )( + T2 214 ) ) )
(or ( <= ( + T2 273 )  ( + T9 111 ) ) ( <= ( + T9 112 )( + T2 256 ) ) )
(or ( <= ( + T2 312 )  ( + T9 112 ) ) ( <= ( + T9 143 )( + T2 273 ) ) )
(or ( <= ( + T2 379 )  ( + T9 143 ) ) ( <= ( + T9 167 )( + T2 312 ) ) )
(or ( <= ( + T2 405 )  ( + T9 167 ) ) ( <= ( + T9 186 )( + T2 379 ) ) )
(or ( <= ( + T2 89 ) T10 ) ( <= ( + T10 43 ) T2 ) )
(or ( <= ( + T2 161 )  ( + T10 43 ) ) ( <= ( + T10 128 )( + T2 89 ) ) )
(or ( <= ( + T2 214 )  ( + T10 128 ) ) ( <= ( + T10 181 )( + T2 161 ) ) )
(or ( <= ( + T2 256 )  ( + T10 181 ) ) ( <= ( + T10 274 )( + T2 214 ) ) )
(or ( <= ( + T2 273 )  ( + T10 274 ) ) ( <= ( + T10 339 )( + T2 256 ) ) )
(or ( <= ( + T2 312 )  ( + T10 339 ) ) ( <= ( + T10 351 )( + T2 273 ) ) )
(or ( <= ( + T2 379 )  ( + T10 351 ) ) ( <= ( + T10 413 )( + T2 312 ) ) )
(or ( <= ( + T2 405 )  ( + T10 413 ) ) ( <= ( + T10 440 )( + T2 379 ) ) )
(or ( <= ( + T3 68 ) T4 ) ( <= ( + T4 89 ) T3 ) )
(or ( <= ( + T3 152 )  ( + T4 89 ) ) ( <= ( + T4 136 )( + T3 68 ) ) )
(or ( <= ( + T3 158 )  ( + T4 136 ) ) ( <= ( + T4 147 )( + T3 152 ) ) )
(or ( <= ( + T3 254 )  ( + T4 147 ) ) ( <= ( + T4 220 )( + T3 158 ) ) )
(or ( <= ( + T3 255 )  ( + T4 220 ) ) ( <= ( + T4 269 )( + T3 254 ) ) )
(or ( <= ( + T3 302 )  ( + T4 269 ) ) ( <= ( + T4 288 )( + T3 255 ) ) )
(or ( <= ( + T3 306 )  ( + T4 288 ) ) ( <= ( + T4 380 )( + T3 302 ) ) )
(or ( <= ( + T3 324 )  ( + T4 380 ) ) ( <= ( + T4 451 )( + T3 306 ) ) )
(or ( <= ( + T3 68 ) T5 ) ( <= ( + T5 51 ) T3 ) )
(or ( <= ( + T3 152 )  ( + T5 51 ) ) ( <= ( + T5 104 )( + T3 68 ) ) )
(or ( <= ( + T3 158 )  ( + T5 104 ) ) ( <= ( + T5 174 )( + T3 152 ) ) )
(or ( <= ( + T3 254 )  ( + T5 174 ) ) ( <= ( + T5 234 )( + T3 158 ) ) )
(or ( <= ( + T3 255 )  ( + T5 234 ) ) ( <= ( + T5 263 )( + T3 254 ) ) )
(or ( <= ( + T3 302 )  ( + T5 263 ) ) ( <= ( + T5 306 )( + T3 255 ) ) )
(or ( <= ( + T3 306 )  ( + T5 306 ) ) ( <= ( + T5 362 )( + T3 302 ) ) )
(or ( <= ( + T3 324 )  ( + T5 362 ) ) ( <= ( + T5 431 )( + T3 306 ) ) )
(or ( <= ( + T3 68 ) T6 ) ( <= ( + T6 66 ) T3 ) )
(or ( <= ( + T3 152 )  ( + T6 66 ) ) ( <= ( + T6 127 )( + T3 68 ) ) )
(or ( <= ( + T3 158 )  ( + T6 127 ) ) ( <= ( + T6 189 )( + T3 152 ) ) )
(or ( <= ( + T3 254 )  ( + T6 189 ) ) ( <= ( + T6 272 )( + T3 158 ) ) )
(or ( <= ( + T3 255 )  ( + T6 272 ) ) ( <= ( + T6 323 )( + T3 254 ) ) )
(or ( <= ( + T3 302 )  ( + T6 323 ) ) ( <= ( + T6 403 )( + T3 255 ) ) )
(or ( <= ( + T3 306 )  ( + T6 403 ) ) ( <= ( + T6 463 )( + T3 302 ) ) )
(or ( <= ( + T3 324 )  ( + T6 463 ) ) ( <= ( + T6 533 )( + T3 306 ) ) )
(or ( <= ( + T3 68 ) T7 ) ( <= ( + T7 63 ) T3 ) )
(or ( <= ( + T3 152 )  ( + T7 63 ) ) ( <= ( + T7 80 )( + T3 68 ) ) )
(or ( <= ( + T3 158 )  ( + T7 80 ) ) ( <= ( + T7 145 )( + T3 152 ) ) )
(or ( <= ( + T3 254 )  ( + T7 145 ) ) ( <= ( + T7 208 )( + T3 158 ) ) )
(or ( <= ( + T3 255 )  ( + T7 208 ) ) ( <= ( + T7 224 )( + T3 254 ) ) )
(or ( <= ( + T3 302 )  ( + T7 224 ) ) ( <= ( + T7 244 )( + T3 255 ) ) )
(or ( <= ( + T3 306 )  ( + T7 244 ) ) ( <= ( + T7 325 )( + T3 302 ) ) )
(or ( <= ( + T3 324 )  ( + T7 325 ) ) ( <= ( + T7 329 )( + T3 306 ) ) )
(or ( <= ( + T3 68 ) T8 ) ( <= ( + T8 66 ) T3 ) )
(or ( <= ( + T3 152 )  ( + T8 66 ) ) ( <= ( + T8 109 )( + T3 68 ) ) )
(or ( <= ( + T3 158 )  ( + T8 109 ) ) ( <= ( + T8 137 )( + T3 152 ) ) )
(or ( <= ( + T3 254 )  ( + T8 137 ) ) ( <= ( + T8 204 )( + T3 158 ) ) )
(or ( <= ( + T3 255 )  ( + T8 204 ) ) ( <= ( + T8 218 )( + T3 254 ) ) )
(or ( <= ( + T3 302 )  ( + T8 218 ) ) ( <= ( + T8 289 )( + T3 255 ) ) )
(or ( <= ( + T3 306 )  ( + T8 289 ) ) ( <= ( + T8 326 )( + T3 302 ) ) )
(or ( <= ( + T3 324 )  ( + T8 326 ) ) ( <= ( + T8 390 )( + T3 306 ) ) )
(or ( <= ( + T3 68 ) T9 ) ( <= ( + T9 24 ) T3 ) )
(or ( <= ( + T3 152 )  ( + T9 24 ) ) ( <= ( + T9 83 )( + T3 68 ) ) )
(or ( <= ( + T3 158 )  ( + T9 83 ) ) ( <= ( + T9 107 )( + T3 152 ) ) )
(or ( <= ( + T3 254 )  ( + T9 107 ) ) ( <= ( + T9 111 )( + T3 158 ) ) )
(or ( <= ( + T3 255 )  ( + T9 111 ) ) ( <= ( + T9 112 )( + T3 254 ) ) )
(or ( <= ( + T3 302 )  ( + T9 112 ) ) ( <= ( + T9 143 )( + T3 255 ) ) )
(or ( <= ( + T3 306 )  ( + T9 143 ) ) ( <= ( + T9 167 )( + T3 302 ) ) )
(or ( <= ( + T3 324 )  ( + T9 167 ) ) ( <= ( + T9 186 )( + T3 306 ) ) )
(or ( <= ( + T3 68 ) T10 ) ( <= ( + T10 43 ) T3 ) )
(or ( <= ( + T3 152 )  ( + T10 43 ) ) ( <= ( + T10 128 )( + T3 68 ) ) )
(or ( <= ( + T3 158 )  ( + T10 128 ) ) ( <= ( + T10 181 )( + T3 152 ) ) )
(or ( <= ( + T3 254 )  ( + T10 181 ) ) ( <= ( + T10 274 )( + T3 158 ) ) )
(or ( <= ( + T3 255 )  ( + T10 274 ) ) ( <= ( + T10 339 )( + T3 254 ) ) )
(or ( <= ( + T3 302 )  ( + T10 339 ) ) ( <= ( + T10 351 )( + T3 255 ) ) )
(or ( <= ( + T3 306 )  ( + T10 351 ) ) ( <= ( + T10 413 )( + T3 302 ) ) )
(or ( <= ( + T3 324 )  ( + T10 413 ) ) ( <= ( + T10 440 )( + T3 306 ) ) )
(or ( <= ( + T4 89 ) T5 ) ( <= ( + T5 51 ) T4 ) )
(or ( <= ( + T4 136 )  ( + T5 51 ) ) ( <= ( + T5 104 )( + T4 89 ) ) )
(or ( <= ( + T4 147 )  ( + T5 104 ) ) ( <= ( + T5 174 )( + T4 136 ) ) )
(or ( <= ( + T4 220 )  ( + T5 174 ) ) ( <= ( + T5 234 )( + T4 147 ) ) )
(or ( <= ( + T4 269 )  ( + T5 234 ) ) ( <= ( + T5 263 )( + T4 220 ) ) )
(or ( <= ( + T4 288 )  ( + T5 263 ) ) ( <= ( + T5 306 )( + T4 269 ) ) )
(or ( <= ( + T4 380 )  ( + T5 306 ) ) ( <= ( + T5 362 )( + T4 288 ) ) )
(or ( <= ( + T4 451 )  ( + T5 362 ) ) ( <= ( + T5 431 )( + T4 380 ) ) )
(or ( <= ( + T4 89 ) T6 ) ( <= ( + T6 66 ) T4 ) )
(or ( <= ( + T4 136 )  ( + T6 66 ) ) ( <= ( + T6 127 )( + T4 89 ) ) )
(or ( <= ( + T4 147 )  ( + T6 127 ) ) ( <= ( + T6 189 )( + T4 136 ) ) )
(or ( <= ( + T4 220 )  ( + T6 189 ) ) ( <= ( + T6 272 )( + T4 147 ) ) )
(or ( <= ( + T4 269 )  ( + T6 272 ) ) ( <= ( + T6 323 )( + T4 220 ) ) )
(or ( <= ( + T4 288 )  ( + T6 323 ) ) ( <= ( + T6 403 )( + T4 269 ) ) )
(or ( <= ( + T4 380 )  ( + T6 403 ) ) ( <= ( + T6 463 )( + T4 288 ) ) )
(or ( <= ( + T4 451 )  ( + T6 463 ) ) ( <= ( + T6 533 )( + T4 380 ) ) )
(or ( <= ( + T4 89 ) T7 ) ( <= ( + T7 63 ) T4 ) )
(or ( <= ( + T4 136 )  ( + T7 63 ) ) ( <= ( + T7 80 )( + T4 89 ) ) )
(or ( <= ( + T4 147 )  ( + T7 80 ) ) ( <= ( + T7 145 )( + T4 136 ) ) )
(or ( <= ( + T4 220 )  ( + T7 145 ) ) ( <= ( + T7 208 )( + T4 147 ) ) )
(or ( <= ( + T4 269 )  ( + T7 208 ) ) ( <= ( + T7 224 )( + T4 220 ) ) )
(or ( <= ( + T4 288 )  ( + T7 224 ) ) ( <= ( + T7 244 )( + T4 269 ) ) )
(or ( <= ( + T4 380 )  ( + T7 244 ) ) ( <= ( + T7 325 )( + T4 288 ) ) )
(or ( <= ( + T4 451 )  ( + T7 325 ) ) ( <= ( + T7 329 )( + T4 380 ) ) )
(or ( <= ( + T4 89 ) T8 ) ( <= ( + T8 66 ) T4 ) )
(or ( <= ( + T4 136 )  ( + T8 66 ) ) ( <= ( + T8 109 )( + T4 89 ) ) )
(or ( <= ( + T4 147 )  ( + T8 109 ) ) ( <= ( + T8 137 )( + T4 136 ) ) )
(or ( <= ( + T4 220 )  ( + T8 137 ) ) ( <= ( + T8 204 )( + T4 147 ) ) )
(or ( <= ( + T4 269 )  ( + T8 204 ) ) ( <= ( + T8 218 )( + T4 220 ) ) )
(or ( <= ( + T4 288 )  ( + T8 218 ) ) ( <= ( + T8 289 )( + T4 269 ) ) )
(or ( <= ( + T4 380 )  ( + T8 289 ) ) ( <= ( + T8 326 )( + T4 288 ) ) )
(or ( <= ( + T4 451 )  ( + T8 326 ) ) ( <= ( + T8 390 )( + T4 380 ) ) )
(or ( <= ( + T4 89 ) T9 ) ( <= ( + T9 24 ) T4 ) )
(or ( <= ( + T4 136 )  ( + T9 24 ) ) ( <= ( + T9 83 )( + T4 89 ) ) )
(or ( <= ( + T4 147 )  ( + T9 83 ) ) ( <= ( + T9 107 )( + T4 136 ) ) )
(or ( <= ( + T4 220 )  ( + T9 107 ) ) ( <= ( + T9 111 )( + T4 147 ) ) )
(or ( <= ( + T4 269 )  ( + T9 111 ) ) ( <= ( + T9 112 )( + T4 220 ) ) )
(or ( <= ( + T4 288 )  ( + T9 112 ) ) ( <= ( + T9 143 )( + T4 269 ) ) )
(or ( <= ( + T4 380 )  ( + T9 143 ) ) ( <= ( + T9 167 )( + T4 288 ) ) )
(or ( <= ( + T4 451 )  ( + T9 167 ) ) ( <= ( + T9 186 )( + T4 380 ) ) )
(or ( <= ( + T4 89 ) T10 ) ( <= ( + T10 43 ) T4 ) )
(or ( <= ( + T4 136 )  ( + T10 43 ) ) ( <= ( + T10 128 )( + T4 89 ) ) )
(or ( <= ( + T4 147 )  ( + T10 128 ) ) ( <= ( + T10 181 )( + T4 136 ) ) )
(or ( <= ( + T4 220 )  ( + T10 181 ) ) ( <= ( + T10 274 )( + T4 147 ) ) )
(or ( <= ( + T4 269 )  ( + T10 274 ) ) ( <= ( + T10 339 )( + T4 220 ) ) )
(or ( <= ( + T4 288 )  ( + T10 339 ) ) ( <= ( + T10 351 )( + T4 269 ) ) )
(or ( <= ( + T4 380 )  ( + T10 351 ) ) ( <= ( + T10 413 )( + T4 288 ) ) )
(or ( <= ( + T4 451 )  ( + T10 413 ) ) ( <= ( + T10 440 )( + T4 380 ) ) )
(or ( <= ( + T5 51 ) T6 ) ( <= ( + T6 66 ) T5 ) )
(or ( <= ( + T5 104 )  ( + T6 66 ) ) ( <= ( + T6 127 )( + T5 51 ) ) )
(or ( <= ( + T5 174 )  ( + T6 127 ) ) ( <= ( + T6 189 )( + T5 104 ) ) )
(or ( <= ( + T5 234 )  ( + T6 189 ) ) ( <= ( + T6 272 )( + T5 174 ) ) )
(or ( <= ( + T5 263 )  ( + T6 272 ) ) ( <= ( + T6 323 )( + T5 234 ) ) )
(or ( <= ( + T5 306 )  ( + T6 323 ) ) ( <= ( + T6 403 )( + T5 263 ) ) )
(or ( <= ( + T5 362 )  ( + T6 403 ) ) ( <= ( + T6 463 )( + T5 306 ) ) )
(or ( <= ( + T5 431 )  ( + T6 463 ) ) ( <= ( + T6 533 )( + T5 362 ) ) )
(or ( <= ( + T5 51 ) T7 ) ( <= ( + T7 63 ) T5 ) )
(or ( <= ( + T5 104 )  ( + T7 63 ) ) ( <= ( + T7 80 )( + T5 51 ) ) )
(or ( <= ( + T5 174 )  ( + T7 80 ) ) ( <= ( + T7 145 )( + T5 104 ) ) )
(or ( <= ( + T5 234 )  ( + T7 145 ) ) ( <= ( + T7 208 )( + T5 174 ) ) )
(or ( <= ( + T5 263 )  ( + T7 208 ) ) ( <= ( + T7 224 )( + T5 234 ) ) )
(or ( <= ( + T5 306 )  ( + T7 224 ) ) ( <= ( + T7 244 )( + T5 263 ) ) )
(or ( <= ( + T5 362 )  ( + T7 244 ) ) ( <= ( + T7 325 )( + T5 306 ) ) )
(or ( <= ( + T5 431 )  ( + T7 325 ) ) ( <= ( + T7 329 )( + T5 362 ) ) )
(or ( <= ( + T5 51 ) T8 ) ( <= ( + T8 66 ) T5 ) )
(or ( <= ( + T5 104 )  ( + T8 66 ) ) ( <= ( + T8 109 )( + T5 51 ) ) )
(or ( <= ( + T5 174 )  ( + T8 109 ) ) ( <= ( + T8 137 )( + T5 104 ) ) )
(or ( <= ( + T5 234 )  ( + T8 137 ) ) ( <= ( + T8 204 )( + T5 174 ) ) )
(or ( <= ( + T5 263 )  ( + T8 204 ) ) ( <= ( + T8 218 )( + T5 234 ) ) )
(or ( <= ( + T5 306 )  ( + T8 218 ) ) ( <= ( + T8 289 )( + T5 263 ) ) )
(or ( <= ( + T5 362 )  ( + T8 289 ) ) ( <= ( + T8 326 )( + T5 306 ) ) )
(or ( <= ( + T5 431 )  ( + T8 326 ) ) ( <= ( + T8 390 )( + T5 362 ) ) )
(or ( <= ( + T5 51 ) T9 ) ( <= ( + T9 24 ) T5 ) )
(or ( <= ( + T5 104 )  ( + T9 24 ) ) ( <= ( + T9 83 )( + T5 51 ) ) )
(or ( <= ( + T5 174 )  ( + T9 83 ) ) ( <= ( + T9 107 )( + T5 104 ) ) )
(or ( <= ( + T5 234 )  ( + T9 107 ) ) ( <= ( + T9 111 )( + T5 174 ) ) )
(or ( <= ( + T5 263 )  ( + T9 111 ) ) ( <= ( + T9 112 )( + T5 234 ) ) )
(or ( <= ( + T5 306 )  ( + T9 112 ) ) ( <= ( + T9 143 )( + T5 263 ) ) )
(or ( <= ( + T5 362 )  ( + T9 143 ) ) ( <= ( + T9 167 )( + T5 306 ) ) )
(or ( <= ( + T5 431 )  ( + T9 167 ) ) ( <= ( + T9 186 )( + T5 362 ) ) )
(or ( <= ( + T5 51 ) T10 ) ( <= ( + T10 43 ) T5 ) )
(or ( <= ( + T5 104 )  ( + T10 43 ) ) ( <= ( + T10 128 )( + T5 51 ) ) )
(or ( <= ( + T5 174 )  ( + T10 128 ) ) ( <= ( + T10 181 )( + T5 104 ) ) )
(or ( <= ( + T5 234 )  ( + T10 181 ) ) ( <= ( + T10 274 )( + T5 174 ) ) )
(or ( <= ( + T5 263 )  ( + T10 274 ) ) ( <= ( + T10 339 )( + T5 234 ) ) )
(or ( <= ( + T5 306 )  ( + T10 339 ) ) ( <= ( + T10 351 )( + T5 263 ) ) )
(or ( <= ( + T5 362 )  ( + T10 351 ) ) ( <= ( + T10 413 )( + T5 306 ) ) )
(or ( <= ( + T5 431 )  ( + T10 413 ) ) ( <= ( + T10 440 )( + T5 362 ) ) )
(or ( <= ( + T6 66 ) T7 ) ( <= ( + T7 63 ) T6 ) )
(or ( <= ( + T6 127 )  ( + T7 63 ) ) ( <= ( + T7 80 )( + T6 66 ) ) )
(or ( <= ( + T6 189 )  ( + T7 80 ) ) ( <= ( + T7 145 )( + T6 127 ) ) )
(or ( <= ( + T6 272 )  ( + T7 145 ) ) ( <= ( + T7 208 )( + T6 189 ) ) )
(or ( <= ( + T6 323 )  ( + T7 208 ) ) ( <= ( + T7 224 )( + T6 272 ) ) )
(or ( <= ( + T6 403 )  ( + T7 224 ) ) ( <= ( + T7 244 )( + T6 323 ) ) )
(or ( <= ( + T6 463 )  ( + T7 244 ) ) ( <= ( + T7 325 )( + T6 403 ) ) )
(or ( <= ( + T6 533 )  ( + T7 325 ) ) ( <= ( + T7 329 )( + T6 463 ) ) )
(or ( <= ( + T6 66 ) T8 ) ( <= ( + T8 66 ) T6 ) )
(or ( <= ( + T6 127 )  ( + T8 66 ) ) ( <= ( + T8 109 )( + T6 66 ) ) )
(or ( <= ( + T6 189 )  ( + T8 109 ) ) ( <= ( + T8 137 )( + T6 127 ) ) )
(or ( <= ( + T6 272 )  ( + T8 137 ) ) ( <= ( + T8 204 )( + T6 189 ) ) )
(or ( <= ( + T6 323 )  ( + T8 204 ) ) ( <= ( + T8 218 )( + T6 272 ) ) )
(or ( <= ( + T6 403 )  ( + T8 218 ) ) ( <= ( + T8 289 )( + T6 323 ) ) )
(or ( <= ( + T6 463 )  ( + T8 289 ) ) ( <= ( + T8 326 )( + T6 403 ) ) )
(or ( <= ( + T6 533 )  ( + T8 326 ) ) ( <= ( + T8 390 )( + T6 463 ) ) )
(or ( <= ( + T6 66 ) T9 ) ( <= ( + T9 24 ) T6 ) )
(or ( <= ( + T6 127 )  ( + T9 24 ) ) ( <= ( + T9 83 )( + T6 66 ) ) )
(or ( <= ( + T6 189 )  ( + T9 83 ) ) ( <= ( + T9 107 )( + T6 127 ) ) )
(or ( <= ( + T6 272 )  ( + T9 107 ) ) ( <= ( + T9 111 )( + T6 189 ) ) )
(or ( <= ( + T6 323 )  ( + T9 111 ) ) ( <= ( + T9 112 )( + T6 272 ) ) )
(or ( <= ( + T6 403 )  ( + T9 112 ) ) ( <= ( + T9 143 )( + T6 323 ) ) )
(or ( <= ( + T6 463 )  ( + T9 143 ) ) ( <= ( + T9 167 )( + T6 403 ) ) )
(or ( <= ( + T6 533 )  ( + T9 167 ) ) ( <= ( + T9 186 )( + T6 463 ) ) )
(or ( <= ( + T6 66 ) T10 ) ( <= ( + T10 43 ) T6 ) )
(or ( <= ( + T6 127 )  ( + T10 43 ) ) ( <= ( + T10 128 )( + T6 66 ) ) )
(or ( <= ( + T6 189 )  ( + T10 128 ) ) ( <= ( + T10 181 )( + T6 127 ) ) )
(or ( <= ( + T6 272 )  ( + T10 181 ) ) ( <= ( + T10 274 )( + T6 189 ) ) )
(or ( <= ( + T6 323 )  ( + T10 274 ) ) ( <= ( + T10 339 )( + T6 272 ) ) )
(or ( <= ( + T6 403 )  ( + T10 339 ) ) ( <= ( + T10 351 )( + T6 323 ) ) )
(or ( <= ( + T6 463 )  ( + T10 351 ) ) ( <= ( + T10 413 )( + T6 403 ) ) )
(or ( <= ( + T6 533 )  ( + T10 413 ) ) ( <= ( + T10 440 )( + T6 463 ) ) )
(or ( <= ( + T7 63 ) T8 ) ( <= ( + T8 66 ) T7 ) )
(or ( <= ( + T7 80 )  ( + T8 66 ) ) ( <= ( + T8 109 )( + T7 63 ) ) )
(or ( <= ( + T7 145 )  ( + T8 109 ) ) ( <= ( + T8 137 )( + T7 80 ) ) )
(or ( <= ( + T7 208 )  ( + T8 137 ) ) ( <= ( + T8 204 )( + T7 145 ) ) )
(or ( <= ( + T7 224 )  ( + T8 204 ) ) ( <= ( + T8 218 )( + T7 208 ) ) )
(or ( <= ( + T7 244 )  ( + T8 218 ) ) ( <= ( + T8 289 )( + T7 224 ) ) )
(or ( <= ( + T7 325 )  ( + T8 289 ) ) ( <= ( + T8 326 )( + T7 244 ) ) )
(or ( <= ( + T7 329 )  ( + T8 326 ) ) ( <= ( + T8 390 )( + T7 325 ) ) )
(or ( <= ( + T7 63 ) T9 ) ( <= ( + T9 24 ) T7 ) )
(or ( <= ( + T7 80 )  ( + T9 24 ) ) ( <= ( + T9 83 )( + T7 63 ) ) )
(or ( <= ( + T7 145 )  ( + T9 83 ) ) ( <= ( + T9 107 )( + T7 80 ) ) )
(or ( <= ( + T7 208 )  ( + T9 107 ) ) ( <= ( + T9 111 )( + T7 145 ) ) )
(or ( <= ( + T7 224 )  ( + T9 111 ) ) ( <= ( + T9 112 )( + T7 208 ) ) )
(or ( <= ( + T7 244 )  ( + T9 112 ) ) ( <= ( + T9 143 )( + T7 224 ) ) )
(or ( <= ( + T7 325 )  ( + T9 143 ) ) ( <= ( + T9 167 )( + T7 244 ) ) )
(or ( <= ( + T7 329 )  ( + T9 167 ) ) ( <= ( + T9 186 )( + T7 325 ) ) )
(or ( <= ( + T7 63 ) T10 ) ( <= ( + T10 43 ) T7 ) )
(or ( <= ( + T7 80 )  ( + T10 43 ) ) ( <= ( + T10 128 )( + T7 63 ) ) )
(or ( <= ( + T7 145 )  ( + T10 128 ) ) ( <= ( + T10 181 )( + T7 80 ) ) )
(or ( <= ( + T7 208 )  ( + T10 181 ) ) ( <= ( + T10 274 )( + T7 145 ) ) )
(or ( <= ( + T7 224 )  ( + T10 274 ) ) ( <= ( + T10 339 )( + T7 208 ) ) )
(or ( <= ( + T7 244 )  ( + T10 339 ) ) ( <= ( + T10 351 )( + T7 224 ) ) )
(or ( <= ( + T7 325 )  ( + T10 351 ) ) ( <= ( + T10 413 )( + T7 244 ) ) )
(or ( <= ( + T7 329 )  ( + T10 413 ) ) ( <= ( + T10 440 )( + T7 325 ) ) )
(or ( <= ( + T8 66 ) T9 ) ( <= ( + T9 24 ) T8 ) )
(or ( <= ( + T8 109 )  ( + T9 24 ) ) ( <= ( + T9 83 )( + T8 66 ) ) )
(or ( <= ( + T8 137 )  ( + T9 83 ) ) ( <= ( + T9 107 )( + T8 109 ) ) )
(or ( <= ( + T8 204 )  ( + T9 107 ) ) ( <= ( + T9 111 )( + T8 137 ) ) )
(or ( <= ( + T8 218 )  ( + T9 111 ) ) ( <= ( + T9 112 )( + T8 204 ) ) )
(or ( <= ( + T8 289 )  ( + T9 112 ) ) ( <= ( + T9 143 )( + T8 218 ) ) )
(or ( <= ( + T8 326 )  ( + T9 143 ) ) ( <= ( + T9 167 )( + T8 289 ) ) )
(or ( <= ( + T8 390 )  ( + T9 167 ) ) ( <= ( + T9 186 )( + T8 326 ) ) )
(or ( <= ( + T8 66 ) T10 ) ( <= ( + T10 43 ) T8 ) )
(or ( <= ( + T8 109 )  ( + T10 43 ) ) ( <= ( + T10 128 )( + T8 66 ) ) )
(or ( <= ( + T8 137 )  ( + T10 128 ) ) ( <= ( + T10 181 )( + T8 109 ) ) )
(or ( <= ( + T8 204 )  ( + T10 181 ) ) ( <= ( + T10 274 )( + T8 137 ) ) )
(or ( <= ( + T8 218 )  ( + T10 274 ) ) ( <= ( + T10 339 )( + T8 204 ) ) )
(or ( <= ( + T8 289 )  ( + T10 339 ) ) ( <= ( + T10 351 )( + T8 218 ) ) )
(or ( <= ( + T8 326 )  ( + T10 351 ) ) ( <= ( + T10 413 )( + T8 289 ) ) )
(or ( <= ( + T8 390 )  ( + T10 413 ) ) ( <= ( + T10 440 )( + T8 326 ) ) )
(or ( <= ( + T9 24 ) T10 ) ( <= ( + T10 43 ) T9 ) )
(or ( <= ( + T9 83 )  ( + T10 43 ) ) ( <= ( + T10 128 )( + T9 24 ) ) )
(or ( <= ( + T9 107 )  ( + T10 128 ) ) ( <= ( + T10 181 )( + T9 83 ) ) )
(or ( <= ( + T9 111 )  ( + T10 181 ) ) ( <= ( + T10 274 )( + T9 107 ) ) )
(or ( <= ( + T9 112 )  ( + T10 274 ) ) ( <= ( + T10 339 )( + T9 111 ) ) )
(or ( <= ( + T9 143 )  ( + T10 339 ) ) ( <= ( + T10 351 )( + T9 112 ) ) )
(or ( <= ( + T9 167 )  ( + T10 351 ) ) ( <= ( + T10 413 )( + T9 143 ) ) )
(or ( <= ( + T9 186 )  ( + T10 413 ) ) ( <= ( + T10 440 )( + T9 167 ) ) )
( <= ( + T1 467 ) Z)
( <= ( + T2 405 ) Z)
( <= ( + T3 324 ) Z)
( <= ( + T4 451 ) Z)
( <= ( + T5 431 ) Z)
( <= ( + T6 533 ) Z)
( <= ( + T7 329 ) Z)
( <= ( + T8 390 ) Z)
( <= ( + T9 186 ) Z)
( <= ( + T10 440 ) Z)
( >= T1 0 )
( >= T2 0 )
( >= T3 0 )
( >= T4 0 )
( >= T5 0 )
( >= T6 0 )
( >= T7 0 )
( >= T8 0 )
( >= T9 0 )
( >= T10 0 )
) )
(minimize Z)
(check-sat)